p cnf 278 2087
99 196 0
120 128 146 0
91 150 203 0
117 149 157 0
127 242 0
73 85 92 222 0
119 230 0
79 94 276 0
52 112 130 233 0
105 124 0
36 81 155 0
34 102 114 142 0
25 158 161 0
167 168 0
131 171 0
87 100 165 0
84 90 136 173 0
97 125 151 0
116 132 135 175 0
74 76 86 93 176 178 0
65 67 69 71 72 0
58 59 60 61 62 118 0
53 54 55 57 78 0
50 51 80 139 170 0
47 48 111 163 0
45 46 106 0
40 42 43 0
39 83 122 172 0
37 38 82 88 95 152 0
35 113 141 174 0
29 30 31 32 33 103 0
26 27 133 160 162 0
19 20 21 23 24 0
18 64 143 0
17 179 180 0
181 182 183 184 0
109 185 186 187 0
129 147 188 189 0
137 190 193 0
138 194 195 197 0
191 198 199 202 0
204 205 206 207 0
208 210 211 213 0
177 214 215 0
56 217 218 219 0
140 220 221 223 0
164 224 226 0
227 228 231 0
41 123 232 234 235 0
89 107 236 0
96 153 156 237 0
104 115 238 239 0
28 154 159 240 0
244 261 0
-99 -120 0
-98 -99 0
-99 -117 0
-98 -120 0
-117 -120 0
-98 -117 0
-70 -92 0
-52 -92 0
-49 -92 0
-52 -70 0
-49 -70 0
-49 -52 0
-176 -212 0
-43 -212 0
-43 -176 0
-88 -122 0
-17 -122 0
-17 -88 0
-217 -243 0
-92 -99 0
-99 -212 0
-99 -122 0
-92 -212 0
-92 -122 0
-122 -212 0
-70 -120 0
-120 -176 0
-88 -120 0
-70 -176 0
-70 -88 0
-88 -176 0
-52 -98 0
-98 -243 0
-52 -243 0
-49 -117 0
-117 -217 0
-49 -217 0
-17 -43 0
-128 -192 0
-128 -203 0
-128 -157 0
-192 -203 0
-157 -192 0
-157 -203 0
-114 -245 0
-114 -158 0
-114 -241 0
-158 -245 0
-241 -245 0
-158 -241 0
-165 -247 0
-165 -248 0
-151 -165 0
-135 -165 0
-165 -200 0
-247 -248 0
-151 -247 0
-135 -247 0
-200 -247 0
-151 -248 0
-135 -248 0
-200 -248 0
-135 -151 0
-151 -200 0
-135 -200 0
-72 -178 0
-62 -178 0
-80 -178 0
-111 -178 0
-106 -178 0
-62 -72 0
-72 -80 0
-72 -111 0
-72 -106 0
-62 -80 0
-62 -111 0
-62 -106 0
-80 -111 0
-80 -106 0
-106 -111 0
-35 -38 0
-33 -38 0
-24 -38 0
-38 -169 0
-38 -143 0
-33 -35 0
-24 -35 0
-35 -169 0
-35 -143 0
-24 -33 0
-33 -169 0
-33 -143 0
-24 -169 0
-24 -143 0
-143 -169 0
-22 -28 0
-114 -128 0
-128 -165 0
-128 -178 0
-38 -128 0
-114 -165 0
-114 -178 0
-38 -114 0
-165 -178 0
-38 -165 0
-38 -178 0
-192 -245 0
-192 -247 0
-72 -192 0
-35 -192 0
-245 -247 0
-72 -245 0
-35 -245 0
-72 -247 0
-35 -247 0
-35 -72 0
-158 -203 0
-203 -248 0
-62 -203 0
-33 -203 0
-158 -248 0
-62 -158 0
-33 -158 0
-62 -248 0
-33 -248 0
-33 -62 0
-157 -241 0
-151 -157 0
-80 -157 0
-24 -157 0
-151 -241 0
-80 -241 0
-24 -241 0
-80 -151 0
-24 -151 0
-24 -80 0
-111 -135 0
-135 -169 0
-28 -135 0
-111 -169 0
-28 -111 0
-28 -169 0
-106 -200 0
-143 -200 0
-22 -200 0
-106 -143 0
-22 -106 0
-22 -143 0
-66 -85 0
-79 -85 0
-85 -130 0
-85 -229 0
-66 -79 0
-66 -130 0
-66 -229 0
-79 -130 0
-79 -229 0
-130 -229 0
-81 -142 0
-81 -161 0
-81 -167 0
-81 -249 0
-142 -161 0
-142 -167 0
-142 -249 0
-161 -167 0
-161 -249 0
-167 -249 0
-57 -61 0
-61 -139 0
-61 -163 0
-42 -61 0
-57 -139 0
-57 -163 0
-42 -57 0
-139 -163 0
-42 -139 0
-42 -163 0
-103 -133 0
-23 -103 0
-103 -250 0
-103 -179 0
-23 -133 0
-133 -250 0
-133 -179 0
-23 -250 0
-23 -179 0
-179 -250 0
-181 -251 0
-185 -251 0
-129 -251 0
-190 -251 0
-138 -251 0
-191 -251 0
-181 -185 0
-129 -181 0
-181 -190 0
-138 -181 0
-181 -191 0
-129 -185 0
-185 -190 0
-138 -185 0
-185 -191 0
-129 -190 0
-129 -138 0
-129 -191 0
-138 -190 0
-190 -191 0
-138 -191 0
-204 -208 0
-77 -204 0
-68 -204 0
-204 -218 0
-204 -220 0
-204 -227 0
-77 -208 0
-68 -208 0
-208 -218 0
-208 -220 0
-208 -227 0
-68 -77 0
-77 -218 0
-77 -220 0
-77 -227 0
-68 -218 0
-68 -220 0
-68 -227 0
-218 -220 0
-218 -227 0
-220 -227 0
-232 -252 0
-96 -252 0
-115 -252 0
-246 -252 0
-159 -252 0
-244 -252 0
-96 -232 0
-115 -232 0
-232 -246 0
-159 -232 0
-232 -244 0
-96 -115 0
-96 -246 0
-96 -159 0
-96 -244 0
-115 -246 0
-115 -159 0
-115 -244 0
-159 -246 0
-244 -246 0
-159 -244 0
-81 -85 0
-85 -251 0
-85 -204 0
-85 -252 0
-81 -251 0
-81 -204 0
-81 -252 0
-204 -251 0
-251 -252 0
-204 -252 0
-66 -142 0
-66 -181 0
-66 -208 0
-66 -232 0
-142 -181 0
-142 -208 0
-142 -232 0
-181 -208 0
-181 -232 0
-208 -232 0
-79 -161 0
-61 -79 0
-79 -103 0
-79 -185 0
-77 -79 0
-79 -96 0
-61 -161 0
-103 -161 0
-161 -185 0
-77 -161 0
-96 -161 0
-61 -103 0
-61 -185 0
-61 -77 0
-61 -96 0
-103 -185 0
-77 -103 0
-96 -103 0
-77 -185 0
-96 -185 0
-77 -96 0
-130 -167 0
-57 -130 0
-130 -133 0
-129 -130 0
-68 -130 0
-115 -130 0
-57 -167 0
-133 -167 0
-129 -167 0
-68 -167 0
-115 -167 0
-57 -133 0
-57 -129 0
-57 -68 0
-57 -115 0
-129 -133 0
-68 -133 0
-115 -133 0
-68 -129 0
-115 -129 0
-68 -115 0
-229 -249 0
-139 -229 0
-23 -229 0
-190 -229 0
-218 -229 0
-229 -246 0
-139 -249 0
-23 -249 0
-190 -249 0
-218 -249 0
-246 -249 0
-23 -139 0
-139 -190 0
-139 -218 0
-139 -246 0
-23 -190 0
-23 -218 0
-23 -246 0
-190 -218 0
-190 -246 0
-218 -246 0
-163 -250 0
-138 -163 0
-163 -220 0
-159 -163 0
-138 -250 0
-220 -250 0
-159 -250 0
-138 -220 0
-138 -159 0
-159 -220 0
-42 -179 0
-42 -191 0
-42 -227 0
-42 -244 0
-179 -191 0
-179 -227 0
-179 -244 0
-191 -227 0
-191 -244 0
-227 -244 0
-91 -209 0
-110 -131 0
-131 -148 0
-131 -136 0
-110 -148 0
-110 -136 0
-136 -148 0
-71 -253 0
-60 -253 0
-55 -253 0
-60 -71 0
-55 -71 0
-55 -60 0
-256 -257 0
-198 -256 0
-198 -257 0
-205 -214 0
-205 -228 0
-214 -228 0
-131 -253 0
-131 -256 0
-131 -205 0
-253 -256 0
-205 -253 0
-205 -256 0
-71 -110 0
-110 -257 0
-110 -214 0
-71 -257 0
-71 -214 0
-214 -257 0
-91 -148 0
-60 -91 0
-60 -148 0
-136 -209 0
-55 -209 0
-55 -136 0
-198 -228 0
-84 -258 0
-175 -258 0
-84 -175 0
-32 -160 0
-32 -259 0
-160 -259 0
-75 -210 0
-210 -260 0
-75 -260 0
-41 -153 0
-41 -238 0
-153 -238 0
-41 -210 0
-32 -258 0
-75 -258 0
-153 -258 0
-32 -75 0
-32 -153 0
-75 -153 0
-84 -160 0
-84 -260 0
-84 -238 0
-160 -260 0
-160 -238 0
-238 -260 0
-175 -259 0
-63 -73 0
-73 -119 0
-73 -276 0
-73 -233 0
-73 -108 0
-63 -119 0
-63 -276 0
-63 -233 0
-63 -108 0
-119 -276 0
-119 -233 0
-108 -119 0
-233 -276 0
-108 -276 0
-108 -233 0
-34 -36 0
-36 -262 0
-25 -36 0
-36 -168 0
-36 -144 0
-34 -262 0
-25 -34 0
-34 -168 0
-34 -144 0
-25 -262 0
-168 -262 0
-144 -262 0
-25 -168 0
-25 -144 0
-144 -168 0
-100 -171 0
-121 -171 0
-171 -263 0
-171 -173 0
-97 -171 0
-116 -171 0
-171 -264 0
-100 -121 0
-100 -263 0
-100 -173 0
-97 -100 0
-100 -116 0
-100 -264 0
-121 -263 0
-121 -173 0
-97 -121 0
-116 -121 0
-121 -264 0
-173 -263 0
-97 -263 0
-116 -263 0
-263 -264 0
-97 -173 0
-116 -173 0
-173 -264 0
-97 -116 0
-97 -264 0
-116 -264 0
-93 -265 0
-69 -265 0
-59 -265 0
-54 -265 0
-51 -265 0
-48 -265 0
-46 -265 0
-69 -93 0
-59 -93 0
-54 -93 0
-51 -93 0
-48 -93 0
-46 -93 0
-59 -69 0
-54 -69 0
-51 -69 0
-48 -69 0
-46 -69 0
-54 -59 0
-51 -59 0
-48 -59 0
-46 -59 0
-51 -54 0
-48 -54 0
-46 -54 0
-48 -51 0
-46 -51 0
-46 -48 0
-37 -83 0
-83 -174 0
-31 -83 0
-27 -83 0
-21 -83 0
-83 -266 0
-18 -83 0
-37 -174 0
-31 -37 0
-27 -37 0
-21 -37 0
-37 -266 0
-18 -37 0
-31 -174 0
-27 -174 0
-21 -174 0
-174 -266 0
-18 -174 0
-27 -31 0
-21 -31 0
-31 -266 0
-18 -31 0
-21 -27 0
-27 -266 0
-18 -27 0
-21 -266 0
-18 -21 0
-18 -266 0
-182 -267 0
-267 -268 0
-186 -267 0
-188 -267 0
-193 -267 0
-194 -267 0
-267 -269 0
-182 -268 0
-182 -186 0
-182 -188 0
-182 -193 0
-182 -194 0
-182 -269 0
-186 -268 0
-188 -268 0
-193 -268 0
-194 -268 0
-268 -269 0
-186 -188 0
-186 -193 0
-186 -194 0
-186 -269 0
-188 -193 0
-188 -194 0
-188 -269 0
-193 -194 0
-193 -269 0
-194 -269 0
-206 -211 0
-177 -206 0
-206 -270 0
-206 -271 0
-206 -219 0
-206 -221 0
-206 -224 0
-177 -211 0
-211 -270 0
-211 -271 0
-211 -219 0
-211 -221 0
-211 -224 0
-177 -270 0
-177 -271 0
-177 -219 0
-177 -221 0
-177 -224 0
-270 -271 0
-219 -270 0
-221 -270 0
-224 -270 0
-219 -271 0
-221 -271 0
-224 -271 0
-219 -221 0
-219 -224 0
-221 -224 0
-44 -123 0
-44 -89 0
-44 -237 0
-44 -239 0
-44 -272 0
-44 -240 0
-44 -273 0
-89 -123 0
-123 -237 0
-123 -239 0
-123 -272 0
-123 -240 0
-123 -273 0
-89 -237 0
-89 -239 0
-89 -272 0
-89 -240 0
-89 -273 0
-237 -239 0
-237 -272 0
-237 -240 0
-237 -273 0
-239 -272 0
-239 -240 0
-239 -273 0
-240 -272 0
-272 -273 0
-240 -273 0
-36 -73 0
-73 -171 0
-73 -265 0
-73 -83 0
-73 -267 0
-73 -206 0
-44 -73 0
-36 -171 0
-36 -265 0
-36 -83 0
-36 -267 0
-36 -206 0
-36 -44 0
-171 -265 0
-83 -171 0
-171 -267 0
-171 -206 0
-44 -171 0
-83 -265 0
-265 -267 0
-206 -265 0
-44 -265 0
-83 -267 0
-83 -206 0
-44 -83 0
-206 -267 0
-44 -267 0
-44 -206 0
-34 -63 0
-63 -100 0
-63 -93 0
-37 -63 0
-63 -182 0
-63 -211 0
-63 -123 0
-34 -100 0
-34 -93 0
-34 -37 0
-34 -182 0
-34 -211 0
-34 -123 0
-93 -100 0
-37 -100 0
-100 -182 0
-100 -211 0
-100 -123 0
-37 -93 0
-93 -182 0
-93 -211 0
-93 -123 0
-37 -182 0
-37 -211 0
-37 -123 0
-182 -211 0
-123 -182 0
-123 -211 0
-119 -262 0
-119 -121 0
-69 -119 0
-119 -174 0
-119 -268 0
-119 -177 0
-89 -119 0
-121 -262 0
-69 -262 0
-174 -262 0
-262 -268 0
-177 -262 0
-89 -262 0
-69 -121 0
-121 -174 0
-121 -268 0
-121 -177 0
-89 -121 0
-69 -174 0
-69 -268 0
-69 -177 0
-69 -89 0
-174 -268 0
-174 -177 0
-89 -174 0
-177 -268 0
-89 -268 0
-89 -177 0
-25 -276 0
-263 -276 0
-59 -276 0
-31 -276 0
-186 -276 0
-270 -276 0
-237 -276 0
-25 -263 0
-25 -59 0
-25 -31 0
-25 -186 0
-25 -270 0
-25 -237 0
-59 -263 0
-31 -263 0
-186 -263 0
-263 -270 0
-237 -263 0
-31 -59 0
-59 -186 0
-59 -270 0
-59 -237 0
-31 -186 0
-31 -270 0
-31 -237 0
-186 -270 0
-186 -237 0
-237 -270 0
-168 -233 0
-173 -233 0
-54 -233 0
-27 -233 0
-188 -233 0
-233 -271 0
-233 -239 0
-168 -173 0
-54 -168 0
-27 -168 0
-168 -188 0
-168 -271 0
-168 -239 0
-54 -173 0
-27 -173 0
-173 -188 0
-173 -271 0
-173 -239 0
-27 -54 0
-54 -188 0
-54 -271 0
-54 -239 0
-27 -188 0
-27 -271 0
-27 -239 0
-188 -271 0
-188 -239 0
-239 -271 0
-108 -144 0
-97 -108 0
-51 -108 0
-21 -108 0
-108 -193 0
-108 -219 0
-108 -272 0
-97 -144 0
-51 -144 0
-21 -144 0
-144 -193 0
-144 -219 0
-144 -272 0
-51 -97 0
-21 -97 0
-97 -193 0
-97 -219 0
-97 -272 0
-21 -51 0
-51 -193 0
-51 -219 0
-51 -272 0
-21 -193 0
-21 -219 0
-21 -272 0
-193 -219 0
-193 -272 0
-219 -272 0
-48 -116 0
-116 -266 0
-116 -194 0
-116 -221 0
-116 -240 0
-48 -266 0
-48 -194 0
-48 -221 0
-48 -240 0
-194 -266 0
-221 -266 0
-240 -266 0
-194 -221 0
-194 -240 0
-221 -240 0
-46 -264 0
-18 -264 0
-264 -269 0
-224 -264 0
-264 -273 0
-18 -46 0
-46 -269 0
-46 -224 0
-46 -273 0
-18 -269 0
-18 -224 0
-18 -273 0
-224 -269 0
-269 -273 0
-224 -273 0
-102 -155 0
-134 -155 0
-102 -134 0
-76 -274 0
-67 -274 0
-170 -274 0
-67 -76 0
-76 -170 0
-67 -170 0
-95 -172 0
-113 -172 0
-20 -172 0
-95 -113 0
-20 -95 0
-20 -113 0
-183 -275 0
-166 -275 0
-199 -275 0
-166 -183 0
-183 -199 0
-166 -199 0
-234 -277 0
-107 -277 0
-261 -277 0
-107 -234 0
-234 -261 0
-107 -261 0
-155 -274 0
-155 -172 0
-155 -275 0
-155 -277 0
-172 -274 0
-274 -275 0
-274 -277 0
-172 -275 0
-172 -277 0
-275 -277 0
-76 -102 0
-95 -102 0
-102 -183 0
-102 -234 0
-76 -95 0
-76 -183 0
-76 -234 0
-95 -183 0
-95 -234 0
-183 -234 0
-67 -134 0
-113 -134 0
-134 -166 0
-107 -134 0
-67 -113 0
-67 -166 0
-67 -107 0
-113 -166 0
-107 -113 0
-107 -166 0
-20 -170 0
-199 -261 0
-146 -196 0
-196 -201 0
-127 -196 0
-196 -255 0
-146 -201 0
-127 -146 0
-146 -255 0
-127 -201 0
-201 -255 0
-127 -255 0
-222 -225 0
-222 -230 0
-222 -278 0
-124 -222 0
-225 -230 0
-225 -278 0
-124 -225 0
-230 -278 0
-124 -230 0
-124 -278 0
-16 -86 0
-16 -65 0
-16 -118 0
-16 -78 0
-65 -86 0
-86 -118 0
-78 -86 0
-65 -118 0
-65 -78 0
-78 -118 0
-39 -82 0
-39 -141 0
-30 -39 0
-39 -162 0
-82 -141 0
-30 -82 0
-82 -162 0
-30 -141 0
-141 -162 0
-30 -162 0
-15 -184 0
-14 -15 0
-15 -187 0
-15 -189 0
-15 -195 0
-13 -15 0
-14 -184 0
-184 -187 0
-184 -189 0
-184 -195 0
-13 -184 0
-14 -187 0
-14 -189 0
-14 -195 0
-13 -14 0
-187 -189 0
-187 -195 0
-13 -187 0
-189 -195 0
-13 -189 0
-13 -195 0
-207 -213 0
-207 -215 0
-12 -207 0
-11 -207 0
-140 -207 0
-164 -207 0
-213 -215 0
-12 -213 0
-11 -213 0
-140 -213 0
-164 -213 0
-12 -215 0
-11 -215 0
-140 -215 0
-164 -215 0
-11 -12 0
-12 -140 0
-12 -164 0
-11 -140 0
-11 -164 0
-140 -164 0
-10 -235 0
-10 -236 0
-10 -156 0
-10 -104 0
-10 -154 0
-10 -101 0
-235 -236 0
-156 -235 0
-104 -235 0
-154 -235 0
-101 -235 0
-156 -236 0
-104 -236 0
-154 -236 0
-101 -236 0
-104 -156 0
-154 -156 0
-101 -156 0
-104 -154 0
-101 -104 0
-101 -154 0
-196 -222 0
-16 -196 0
-39 -196 0
-15 -196 0
-196 -207 0
-10 -196 0
-16 -222 0
-39 -222 0
-15 -222 0
-207 -222 0
-10 -222 0
-16 -39 0
-15 -16 0
-16 -207 0
-10 -16 0
-15 -39 0
-39 -207 0
-10 -39 0
-15 -207 0
-10 -15 0
-10 -207 0
-146 -225 0
-86 -146 0
-82 -146 0
-146 -184 0
-146 -213 0
-146 -235 0
-86 -225 0
-82 -225 0
-184 -225 0
-213 -225 0
-225 -235 0
-82 -86 0
-86 -184 0
-86 -213 0
-86 -235 0
-82 -184 0
-82 -213 0
-82 -235 0
-184 -213 0
-184 -235 0
-213 -235 0
-201 -230 0
-65 -201 0
-141 -201 0
-14 -201 0
-201 -215 0
-201 -236 0
-65 -230 0
-141 -230 0
-14 -230 0
-215 -230 0
-230 -236 0
-65 -141 0
-14 -65 0
-65 -215 0
-65 -236 0
-14 -141 0
-141 -215 0
-141 -236 0
-14 -215 0
-14 -236 0
-215 -236 0
-30 -118 0
-118 -187 0
-12 -118 0
-118 -156 0
-30 -187 0
-12 -30 0
-30 -156 0
-12 -187 0
-156 -187 0
-12 -156 0
-78 -162 0
-78 -189 0
-11 -78 0
-78 -104 0
-162 -189 0
-11 -162 0
-104 -162 0
-11 -189 0
-104 -189 0
-11 -104 0
-127 -278 0
-127 -195 0
-127 -140 0
-127 -154 0
-195 -278 0
-140 -278 0
-154 -278 0
-140 -195 0
-154 -195 0
-140 -154 0
-124 -255 0
-13 -255 0
-164 -255 0
-101 -255 0
-13 -124 0
-124 -164 0
-101 -124 0
-13 -164 0
-13 -101 0
-101 -164 0
-9 -150 0
-149 -150 0
-150 -242 0
-150 -216 0
-8 -150 0
-9 -149 0
-9 -242 0
-9 -216 0
-8 -9 0
-149 -242 0
-149 -216 0
-8 -149 0
-216 -242 0
-8 -242 0
-8 -216 0
-94 -112 0
-7 -94 0
-6 -94 0
-94 -105 0
-5 -94 0
-7 -112 0
-6 -112 0
-105 -112 0
-5 -112 0
-6 -7 0
-7 -105 0
-5 -7 0
-6 -105 0
-5 -6 0
-5 -105 0
-4 -87 0
-87 -90 0
-87 -125 0
-87 -132 0
-3 -87 0
-2 -87 0
-4 -90 0
-4 -125 0
-4 -132 0
-3 -4 0
-2 -4 0
-90 -125 0
-90 -132 0
-3 -90 0
-2 -90 0
-125 -132 0
-3 -125 0
-2 -125 0
-3 -132 0
-2 -132 0
-2 -3 0
-58 -74 0
-53 -74 0
-50 -74 0
-47 -74 0
-45 -74 0
-40 -74 0
-53 -58 0
-50 -58 0
-47 -58 0
-45 -58 0
-40 -58 0
-50 -53 0
-47 -53 0
-45 -53 0
-40 -53 0
-47 -50 0
-45 -50 0
-40 -50 0
-45 -47 0
-40 -47 0
-40 -45 0
-29 -152 0
-26 -152 0
-19 -152 0
-1 -152 0
-64 -152 0
-152 -180 0
-26 -29 0
-19 -29 0
-1 -29 0
-29 -64 0
-29 -180 0
-19 -26 0
-1 -26 0
-26 -64 0
-26 -180 0
-1 -19 0
-19 -64 0
-19 -180 0
-1 -64 0
-1 -180 0
-64 -180 0
-109 -147 0
-109 -137 0
-109 -197 0
-109 -145 0
-109 -202 0
-137 -147 0
-147 -197 0
-145 -147 0
-147 -202 0
-137 -197 0
-137 -145 0
-137 -202 0
-145 -197 0
-197 -202 0
-145 -202 0
-126 -254 0
-56 -126 0
-126 -223 0
-126 -226 0
-126 -231 0
-56 -254 0
-223 -254 0
-226 -254 0
-231 -254 0
-56 -223 0
-56 -226 0
-56 -231 0
-223 -226 0
-223 -231 0
-226 -231 0
-74 -87 0
-87 -152 0
-74 -152 0
-94 -150 0
-4 -150 0
-58 -150 0
-29 -150 0
-109 -150 0
-126 -150 0
-4 -94 0
-58 -94 0
-29 -94 0
-94 -109 0
-94 -126 0
-4 -58 0
-4 -29 0
-4 -109 0
-4 -126 0
-29 -58 0
-58 -109 0
-58 -126 0
-29 -109 0
-29 -126 0
-109 -126 0
-9 -112 0
-9 -90 0
-9 -53 0
-9 -26 0
-9 -147 0
-9 -254 0
-90 -112 0
-53 -112 0
-26 -112 0
-112 -147 0
-112 -254 0
-53 -90 0
-26 -90 0
-90 -147 0
-90 -254 0
-26 -53 0
-53 -147 0
-53 -254 0
-26 -147 0
-26 -254 0
-147 -254 0
-7 -149 0
-125 -149 0
-50 -149 0
-19 -149 0
-137 -149 0
-56 -149 0
-7 -125 0
-7 -50 0
-7 -19 0
-7 -137 0
-7 -56 0
-50 -125 0
-19 -125 0
-125 -137 0
-56 -125 0
-19 -50 0
-50 -137 0
-50 -56 0
-19 -137 0
-19 -56 0
-56 -137 0
-6 -242 0
-132 -242 0
-47 -242 0
-1 -242 0
-197 -242 0
-223 -242 0
-6 -132 0
-6 -47 0
-1 -6 0
-6 -197 0
-6 -223 0
-47 -132 0
-1 -132 0
-132 -197 0
-132 -223 0
-1 -47 0
-47 -197 0
-47 -223 0
-1 -197 0
-1 -223 0
-197 -223 0
-105 -216 0
-3 -216 0
-45 -216 0
-64 -216 0
-145 -216 0
-216 -226 0
-3 -105 0
-45 -105 0
-64 -105 0
-105 -145 0
-105 -226 0
-3 -45 0
-3 -64 0
-3 -145 0
-3 -226 0
-45 -64 0
-45 -145 0
-45 -226 0
-64 -145 0
-64 -226 0
-145 -226 0
-5 -8 0
-2 -8 0
-8 -40 0
-8 -180 0
-8 -202 0
-8 -231 0
-2 -5 0
-5 -40 0
-5 -180 0
-5 -202 0
-5 -231 0
-2 -40 0
-2 -180 0
-2 -202 0
-2 -231 0
-40 -180 0
-40 -202 0
-40 -231 0
-180 -202 0
-180 -231 0
-202 -231 0
-99 -120 0
-92 -99 0
-70 -99 0
-92 -120 0
-70 -120 0
-70 -92 0
-128 -192 0
-114 -128 0
-128 -245 0
-114 -192 0
-192 -245 0
-114 -245 0
-66 -85 0
-81 -85 0
-85 -142 0
-66 -81 0
-66 -142 0
-81 -142 0
-63 -73 0
-73 -119 0
-36 -73 0
-34 -73 0
-73 -262 0
-63 -119 0
-36 -63 0
-34 -63 0
-63 -262 0
-36 -119 0
-34 -119 0
-119 -262 0
-34 -36 0
-36 -262 0
-34 -262 0
-102 -155 0
-134 -155 0
-102 -134 0
-146 -196 0
-196 -201 0
-196 -222 0
-196 -225 0
-196 -230 0
-146 -201 0
-146 -222 0
-146 -225 0
-146 -230 0
-201 -222 0
-201 -225 0
-201 -230 0
-222 -225 0
-222 -230 0
-225 -230 0
-98 -117 0
-52 -98 0
-49 -98 0
-52 -117 0
-49 -117 0
-49 -52 0
-157 -203 0
-158 -203 0
-203 -241 0
-157 -158 0
-157 -241 0
-158 -241 0
-79 -130 0
-79 -229 0
-79 -161 0
-79 -167 0
-79 -249 0
-130 -229 0
-130 -161 0
-130 -167 0
-130 -249 0
-161 -229 0
-167 -229 0
-229 -249 0
-161 -167 0
-161 -249 0
-167 -249 0
-91 -209 0
-233 -276 0
-108 -276 0
-25 -276 0
-168 -276 0
-144 -276 0
-108 -233 0
-25 -233 0
-168 -233 0
-144 -233 0
-25 -108 0
-108 -168 0
-108 -144 0
-25 -168 0
-25 -144 0
-144 -168 0
-9 -150 0
-149 -150 0
-94 -150 0
-112 -150 0
-7 -150 0
-9 -149 0
-9 -94 0
-9 -112 0
-7 -9 0
-94 -149 0
-112 -149 0
-7 -149 0
-94 -112 0
-7 -94 0
-7 -112 0
-127 -255 0
-127 -278 0
-124 -127 0
-255 -278 0
-124 -255 0
-124 -278 0
-216 -242 0
-8 -242 0
-6 -242 0
-105 -242 0
-5 -242 0
-8 -216 0
-6 -216 0
-105 -216 0
-5 -216 0
-6 -8 0
-8 -105 0
-5 -8 0
-6 -105 0
-5 -6 0
-5 -105 0
-176 -212 0
-122 -212 0
-88 -212 0
-122 -176 0
-88 -176 0
-88 -122 0
-165 -247 0
-165 -178 0
-72 -165 0
-38 -165 0
-35 -165 0
-178 -247 0
-72 -247 0
-38 -247 0
-35 -247 0
-72 -178 0
-38 -178 0
-35 -178 0
-38 -72 0
-35 -72 0
-35 -38 0
-110 -131 0
-131 -253 0
-71 -131 0
-110 -253 0
-71 -110 0
-71 -253 0
-100 -171 0
-121 -171 0
-171 -265 0
-93 -171 0
-69 -171 0
-83 -171 0
-37 -171 0
-171 -174 0
-100 -121 0
-100 -265 0
-93 -100 0
-69 -100 0
-83 -100 0
-37 -100 0
-100 -174 0
-121 -265 0
-93 -121 0
-69 -121 0
-83 -121 0
-37 -121 0
-121 -174 0
-93 -265 0
-69 -265 0
-83 -265 0
-37 -265 0
-174 -265 0
-69 -93 0
-83 -93 0
-37 -93 0
-93 -174 0
-69 -83 0
-37 -69 0
-69 -174 0
-37 -83 0
-83 -174 0
-37 -174 0
-76 -274 0
-67 -274 0
-172 -274 0
-95 -274 0
-113 -274 0
-67 -76 0
-76 -172 0
-76 -95 0
-76 -113 0
-67 -172 0
-67 -95 0
-67 -113 0
-95 -172 0
-113 -172 0
-95 -113 0
-16 -86 0
-16 -65 0
-16 -39 0
-16 -82 0
-16 -141 0
-65 -86 0
-39 -86 0
-82 -86 0
-86 -141 0
-39 -65 0
-65 -82 0
-65 -141 0
-39 -82 0
-39 -141 0
-82 -141 0
-74 -87 0
-87 -152 0
-74 -152 0
-151 -248 0
-62 -248 0
-80 -248 0
-33 -248 0
-24 -248 0
-62 -151 0
-80 -151 0
-33 -151 0
-24 -151 0
-62 -80 0
-33 -62 0
-24 -62 0
-33 -80 0
-24 -80 0
-24 -33 0
-57 -61 0
-61 -139 0
-61 -103 0
-61 -133 0
-23 -61 0
-57 -139 0
-57 -103 0
-57 -133 0
-23 -57 0
-103 -139 0
-133 -139 0
-23 -139 0
-103 -133 0
-23 -103 0
-23 -133 0
-136 -148 0
-60 -148 0
-55 -148 0
-60 -136 0
-55 -136 0
-55 -60 0
-84 -258 0
-32 -258 0
-160 -258 0
-32 -84 0
-84 -160 0
-32 -160 0
-173 -263 0
-97 -263 0
-59 -263 0
-54 -263 0
-51 -263 0
-31 -263 0
-27 -263 0
-21 -263 0
-97 -173 0
-59 -173 0
-54 -173 0
-51 -173 0
-31 -173 0
-27 -173 0
-21 -173 0
-59 -97 0
-54 -97 0
-51 -97 0
-31 -97 0
-27 -97 0
-21 -97 0
-54 -59 0
-51 -59 0
-31 -59 0
-27 -59 0
-21 -59 0
-51 -54 0
-31 -54 0
-27 -54 0
-21 -54 0
-31 -51 0
-27 -51 0
-21 -51 0
-27 -31 0
-21 -31 0
-21 -27 0
-20 -170 0
-78 -118 0
-30 -118 0
-118 -162 0
-30 -78 0
-78 -162 0
-30 -162 0
-4 -90 0
-4 -125 0
-4 -58 0
-4 -53 0
-4 -50 0
-4 -29 0
-4 -26 0
-4 -19 0
-90 -125 0
-58 -90 0
-53 -90 0
-50 -90 0
-29 -90 0
-26 -90 0
-19 -90 0
-58 -125 0
-53 -125 0
-50 -125 0
-29 -125 0
-26 -125 0
-19 -125 0
-53 -58 0
-50 -58 0
-29 -58 0
-26 -58 0
-19 -58 0
-50 -53 0
-29 -53 0
-26 -53 0
-19 -53 0
-29 -50 0
-26 -50 0
-19 -50 0
-26 -29 0
-19 -29 0
-19 -26 0
-17 -43 0
-135 -200 0
-111 -135 0
-106 -135 0
-135 -169 0
-135 -143 0
-111 -200 0
-106 -200 0
-169 -200 0
-143 -200 0
-106 -111 0
-111 -169 0
-111 -143 0
-106 -169 0
-106 -143 0
-143 -169 0
-42 -163 0
-163 -250 0
-163 -179 0
-42 -250 0
-42 -179 0
-179 -250 0
-175 -259 0
-116 -264 0
-48 -116 0
-46 -116 0
-116 -266 0
-18 -116 0
-48 -264 0
-46 -264 0
-264 -266 0
-18 -264 0
-46 -48 0
-48 -266 0
-18 -48 0
-46 -266 0
-18 -46 0
-18 -266 0
-3 -132 0
-2 -132 0
-47 -132 0
-45 -132 0
-40 -132 0
-1 -132 0
-64 -132 0
-132 -180 0
-2 -3 0
-3 -47 0
-3 -45 0
-3 -40 0
-1 -3 0
-3 -64 0
-3 -180 0
-2 -47 0
-2 -45 0
-2 -40 0
-1 -2 0
-2 -64 0
-2 -180 0
-45 -47 0
-40 -47 0
-1 -47 0
-47 -64 0
-47 -180 0
-40 -45 0
-1 -45 0
-45 -64 0
-45 -180 0
-1 -40 0
-40 -64 0
-40 -180 0
-1 -64 0
-1 -180 0
-64 -180 0
-181 -251 0
-204 -251 0
-208 -251 0
-251 -252 0
-232 -251 0
-181 -204 0
-181 -208 0
-181 -252 0
-181 -232 0
-204 -208 0
-204 -252 0
-204 -232 0
-208 -252 0
-208 -232 0
-232 -252 0
-256 -257 0
-205 -256 0
-214 -256 0
-205 -257 0
-214 -257 0
-205 -214 0
-41 -210 0
-182 -267 0
-267 -268 0
-206 -267 0
-211 -267 0
-177 -267 0
-44 -267 0
-123 -267 0
-89 -267 0
-182 -268 0
-182 -206 0
-182 -211 0
-177 -182 0
-44 -182 0
-123 -182 0
-89 -182 0
-206 -268 0
-211 -268 0
-177 -268 0
-44 -268 0
-123 -268 0
-89 -268 0
-206 -211 0
-177 -206 0
-44 -206 0
-123 -206 0
-89 -206 0
-177 -211 0
-44 -211 0
-123 -211 0
-89 -211 0
-44 -177 0
-123 -177 0
-89 -177 0
-44 -123 0
-44 -89 0
-89 -123 0
-183 -275 0
-166 -275 0
-275 -277 0
-234 -275 0
-107 -275 0
-166 -183 0
-183 -277 0
-183 -234 0
-107 -183 0
-166 -277 0
-166 -234 0
-107 -166 0
-234 -277 0
-107 -277 0
-107 -234 0
-15 -184 0
-14 -15 0
-15 -207 0
-15 -213 0
-15 -215 0
-10 -15 0
-15 -235 0
-15 -236 0
-14 -184 0
-184 -207 0
-184 -213 0
-184 -215 0
-10 -184 0
-184 -235 0
-184 -236 0
-14 -207 0
-14 -213 0
-14 -215 0
-10 -14 0
-14 -235 0
-14 -236 0
-207 -213 0
-207 -215 0
-10 -207 0
-207 -235 0
-207 -236 0
-213 -215 0
-10 -213 0
-213 -235 0
-213 -236 0
-10 -215 0
-215 -235 0
-215 -236 0
-10 -235 0
-10 -236 0
-235 -236 0
-217 -243 0
-129 -185 0
-185 -190 0
-77 -185 0
-68 -185 0
-185 -218 0
-96 -185 0
-115 -185 0
-185 -246 0
-129 -190 0
-77 -129 0
-68 -129 0
-129 -218 0
-96 -129 0
-115 -129 0
-129 -246 0
-77 -190 0
-68 -190 0
-190 -218 0
-96 -190 0
-115 -190 0
-190 -246 0
-68 -77 0
-77 -218 0
-77 -96 0
-77 -115 0
-77 -246 0
-68 -218 0
-68 -96 0
-68 -115 0
-68 -246 0
-96 -218 0
-115 -218 0
-218 -246 0
-96 -115 0
-96 -246 0
-115 -246 0
-75 -260 0
-75 -153 0
-75 -238 0
-153 -260 0
-238 -260 0
-153 -238 0
-186 -188 0
-186 -193 0
-186 -270 0
-186 -271 0
-186 -219 0
-186 -237 0
-186 -239 0
-186 -272 0
-188 -193 0
-188 -270 0
-188 -271 0
-188 -219 0
-188 -237 0
-188 -239 0
-188 -272 0
-193 -270 0
-193 -271 0
-193 -219 0
-193 -237 0
-193 -239 0
-193 -272 0
-270 -271 0
-219 -270 0
-237 -270 0
-239 -270 0
-270 -272 0
-219 -271 0
-237 -271 0
-239 -271 0
-271 -272 0
-219 -237 0
-219 -239 0
-219 -272 0
-237 -239 0
-237 -272 0
-239 -272 0
-187 -189 0
-12 -187 0
-11 -187 0
-156 -187 0
-104 -187 0
-12 -189 0
-11 -189 0
-156 -189 0
-104 -189 0
-11 -12 0
-12 -156 0
-12 -104 0
-11 -156 0
-11 -104 0
-104 -156 0
-109 -147 0
-109 -137 0
-109 -126 0
-109 -254 0
-56 -109 0
-137 -147 0
-126 -147 0
-147 -254 0
-56 -147 0
-126 -137 0
-137 -254 0
-56 -137 0
-126 -254 0
-56 -126 0
-56 -254 0
-22 -28 0
-138 -191 0
-138 -220 0
-138 -227 0
-138 -159 0
-138 -244 0
-191 -220 0
-191 -227 0
-159 -191 0
-191 -244 0
-220 -227 0
-159 -220 0
-220 -244 0
-159 -227 0
-227 -244 0
-159 -244 0
-198 -228 0
-194 -269 0
-194 -221 0
-194 -224 0
-194 -240 0
-194 -273 0
-221 -269 0
-224 -269 0
-240 -269 0
-269 -273 0
-221 -224 0
-221 -240 0
-221 -273 0
-224 -240 0
-224 -273 0
-240 -273 0
-199 -261 0
-13 -195 0
-140 -195 0
-164 -195 0
-154 -195 0
-101 -195 0
-13 -140 0
-13 -164 0
-13 -154 0
-13 -101 0
-140 -164 0
-140 -154 0
-101 -140 0
-154 -164 0
-101 -164 0
-101 -154 0
-145 -197 0
-197 -202 0
-197 -223 0
-197 -226 0
-197 -231 0
-145 -202 0
-145 -223 0
-145 -226 0
-145 -231 0
-202 -223 0
-202 -226 0
-202 -231 0
-223 -226 0
-223 -231 0
-226 -231 0
